100 84817

 655 407
81 262
243 980
774 798
529 302
928 848
429 759
870 298
449 427
980 186
960 112
330 723
886 268
848 821
211 996
625 77
73 474
837 803
175 789
71 760
401 349
577 454
855 595
975 974
440 328
61 924
750 270
566 990
448 671
310 464
503 614
339 273
758 275
544 114
877 115
544 348
239 763
852 608
558 103
207 853
624 602
358 961
845 671
454 176
727 474
96 649
397 29
984 15
809 130
160 252
278 430
330 488
651 139
757 674
750 597
510 295
811 14
438 78
124 392
565 154
953 377
793 629
579 548
647 232
931 344
429 615
332 861
978 754
864 554
324 363
464 366
416 880
150 40
958 988
405 665
876 682
190 38
548 606
24 485
765 106
581 278
626 891
52 550
212 414
75 73
289 715
628 703
567 615
613 511
550 434
274 594
245 234
138 942
850 589
617 312
187 450
178 806
874 162
743 293
660 680
